c *********************************
c * Circuit generated by BenCGen
c *
c * Parity_158
c *
c * Ports with 1 gate(s): 1
c * Ports with 2 gate(s): 158
c * Total gates: 159
c *********************************
p cnf 317 633
1 161 0
-1 -161 0
1 -160 0
161 -160 0
-1 -161 160 0
1 2 -162 0
-1 2 162 0
1 -2 162 0
-1 -2 -162 0
3 4 -163 0
-3 4 163 0
3 -4 163 0
-3 -4 -163 0
5 6 -164 0
-5 6 164 0
5 -6 164 0
-5 -6 -164 0
7 8 -165 0
-7 8 165 0
7 -8 165 0
-7 -8 -165 0
9 10 -166 0
-9 10 166 0
9 -10 166 0
-9 -10 -166 0
11 12 -167 0
-11 12 167 0
11 -12 167 0
-11 -12 -167 0
13 14 -168 0
-13 14 168 0
13 -14 168 0
-13 -14 -168 0
15 16 -169 0
-15 16 169 0
15 -16 169 0
-15 -16 -169 0
17 18 -170 0
-17 18 170 0
17 -18 170 0
-17 -18 -170 0
19 20 -171 0
-19 20 171 0
19 -20 171 0
-19 -20 -171 0
21 22 -172 0
-21 22 172 0
21 -22 172 0
-21 -22 -172 0
23 24 -173 0
-23 24 173 0
23 -24 173 0
-23 -24 -173 0
25 26 -174 0
-25 26 174 0
25 -26 174 0
-25 -26 -174 0
27 28 -175 0
-27 28 175 0
27 -28 175 0
-27 -28 -175 0
29 30 -176 0
-29 30 176 0
29 -30 176 0
-29 -30 -176 0
31 32 -177 0
-31 32 177 0
31 -32 177 0
-31 -32 -177 0
33 34 -178 0
-33 34 178 0
33 -34 178 0
-33 -34 -178 0
35 36 -179 0
-35 36 179 0
35 -36 179 0
-35 -36 -179 0
37 38 -180 0
-37 38 180 0
37 -38 180 0
-37 -38 -180 0
39 40 -181 0
-39 40 181 0
39 -40 181 0
-39 -40 -181 0
41 42 -182 0
-41 42 182 0
41 -42 182 0
-41 -42 -182 0
43 44 -183 0
-43 44 183 0
43 -44 183 0
-43 -44 -183 0
45 46 -184 0
-45 46 184 0
45 -46 184 0
-45 -46 -184 0
47 48 -185 0
-47 48 185 0
47 -48 185 0
-47 -48 -185 0
49 50 -186 0
-49 50 186 0
49 -50 186 0
-49 -50 -186 0
51 52 -187 0
-51 52 187 0
51 -52 187 0
-51 -52 -187 0
53 54 -188 0
-53 54 188 0
53 -54 188 0
-53 -54 -188 0
55 56 -189 0
-55 56 189 0
55 -56 189 0
-55 -56 -189 0
57 58 -190 0
-57 58 190 0
57 -58 190 0
-57 -58 -190 0
59 60 -191 0
-59 60 191 0
59 -60 191 0
-59 -60 -191 0
61 62 -192 0
-61 62 192 0
61 -62 192 0
-61 -62 -192 0
63 64 -193 0
-63 64 193 0
63 -64 193 0
-63 -64 -193 0
65 66 -194 0
-65 66 194 0
65 -66 194 0
-65 -66 -194 0
67 68 -195 0
-67 68 195 0
67 -68 195 0
-67 -68 -195 0
69 70 -196 0
-69 70 196 0
69 -70 196 0
-69 -70 -196 0
71 72 -197 0
-71 72 197 0
71 -72 197 0
-71 -72 -197 0
73 74 -198 0
-73 74 198 0
73 -74 198 0
-73 -74 -198 0
75 76 -199 0
-75 76 199 0
75 -76 199 0
-75 -76 -199 0
77 78 -200 0
-77 78 200 0
77 -78 200 0
-77 -78 -200 0
79 80 -201 0
-79 80 201 0
79 -80 201 0
-79 -80 -201 0
81 82 -202 0
-81 82 202 0
81 -82 202 0
-81 -82 -202 0
83 84 -203 0
-83 84 203 0
83 -84 203 0
-83 -84 -203 0
85 86 -204 0
-85 86 204 0
85 -86 204 0
-85 -86 -204 0
87 88 -205 0
-87 88 205 0
87 -88 205 0
-87 -88 -205 0
89 90 -206 0
-89 90 206 0
89 -90 206 0
-89 -90 -206 0
91 92 -207 0
-91 92 207 0
91 -92 207 0
-91 -92 -207 0
93 94 -208 0
-93 94 208 0
93 -94 208 0
-93 -94 -208 0
95 96 -209 0
-95 96 209 0
95 -96 209 0
-95 -96 -209 0
97 98 -210 0
-97 98 210 0
97 -98 210 0
-97 -98 -210 0
99 100 -211 0
-99 100 211 0
99 -100 211 0
-99 -100 -211 0
101 102 -212 0
-101 102 212 0
101 -102 212 0
-101 -102 -212 0
103 104 -213 0
-103 104 213 0
103 -104 213 0
-103 -104 -213 0
105 106 -214 0
-105 106 214 0
105 -106 214 0
-105 -106 -214 0
107 108 -215 0
-107 108 215 0
107 -108 215 0
-107 -108 -215 0
109 110 -216 0
-109 110 216 0
109 -110 216 0
-109 -110 -216 0
111 112 -217 0
-111 112 217 0
111 -112 217 0
-111 -112 -217 0
113 114 -218 0
-113 114 218 0
113 -114 218 0
-113 -114 -218 0
115 116 -219 0
-115 116 219 0
115 -116 219 0
-115 -116 -219 0
117 118 -220 0
-117 118 220 0
117 -118 220 0
-117 -118 -220 0
119 120 -221 0
-119 120 221 0
119 -120 221 0
-119 -120 -221 0
121 122 -222 0
-121 122 222 0
121 -122 222 0
-121 -122 -222 0
123 124 -223 0
-123 124 223 0
123 -124 223 0
-123 -124 -223 0
125 126 -224 0
-125 126 224 0
125 -126 224 0
-125 -126 -224 0
127 128 -225 0
-127 128 225 0
127 -128 225 0
-127 -128 -225 0
129 130 -226 0
-129 130 226 0
129 -130 226 0
-129 -130 -226 0
131 132 -227 0
-131 132 227 0
131 -132 227 0
-131 -132 -227 0
133 134 -228 0
-133 134 228 0
133 -134 228 0
-133 -134 -228 0
135 136 -229 0
-135 136 229 0
135 -136 229 0
-135 -136 -229 0
137 138 -230 0
-137 138 230 0
137 -138 230 0
-137 -138 -230 0
139 140 -231 0
-139 140 231 0
139 -140 231 0
-139 -140 -231 0
141 142 -232 0
-141 142 232 0
141 -142 232 0
-141 -142 -232 0
143 144 -233 0
-143 144 233 0
143 -144 233 0
-143 -144 -233 0
145 146 -234 0
-145 146 234 0
145 -146 234 0
-145 -146 -234 0
147 148 -235 0
-147 148 235 0
147 -148 235 0
-147 -148 -235 0
149 150 -236 0
-149 150 236 0
149 -150 236 0
-149 -150 -236 0
151 152 -237 0
-151 152 237 0
151 -152 237 0
-151 -152 -237 0
153 154 -238 0
-153 154 238 0
153 -154 238 0
-153 -154 -238 0
155 156 -239 0
-155 156 239 0
155 -156 239 0
-155 -156 -239 0
157 158 -240 0
-157 158 240 0
157 -158 240 0
-157 -158 -240 0
162 163 -241 0
-162 163 241 0
162 -163 241 0
-162 -163 -241 0
164 165 -242 0
-164 165 242 0
164 -165 242 0
-164 -165 -242 0
166 167 -243 0
-166 167 243 0
166 -167 243 0
-166 -167 -243 0
168 169 -244 0
-168 169 244 0
168 -169 244 0
-168 -169 -244 0
170 171 -245 0
-170 171 245 0
170 -171 245 0
-170 -171 -245 0
172 173 -246 0
-172 173 246 0
172 -173 246 0
-172 -173 -246 0
174 175 -247 0
-174 175 247 0
174 -175 247 0
-174 -175 -247 0
176 177 -248 0
-176 177 248 0
176 -177 248 0
-176 -177 -248 0
178 179 -249 0
-178 179 249 0
178 -179 249 0
-178 -179 -249 0
180 181 -250 0
-180 181 250 0
180 -181 250 0
-180 -181 -250 0
182 183 -251 0
-182 183 251 0
182 -183 251 0
-182 -183 -251 0
184 185 -252 0
-184 185 252 0
184 -185 252 0
-184 -185 -252 0
186 187 -253 0
-186 187 253 0
186 -187 253 0
-186 -187 -253 0
188 189 -254 0
-188 189 254 0
188 -189 254 0
-188 -189 -254 0
190 191 -255 0
-190 191 255 0
190 -191 255 0
-190 -191 -255 0
192 193 -256 0
-192 193 256 0
192 -193 256 0
-192 -193 -256 0
194 195 -257 0
-194 195 257 0
194 -195 257 0
-194 -195 -257 0
196 197 -258 0
-196 197 258 0
196 -197 258 0
-196 -197 -258 0
198 199 -259 0
-198 199 259 0
198 -199 259 0
-198 -199 -259 0
200 201 -260 0
-200 201 260 0
200 -201 260 0
-200 -201 -260 0
202 203 -261 0
-202 203 261 0
202 -203 261 0
-202 -203 -261 0
204 205 -262 0
-204 205 262 0
204 -205 262 0
-204 -205 -262 0
206 207 -263 0
-206 207 263 0
206 -207 263 0
-206 -207 -263 0
208 209 -264 0
-208 209 264 0
208 -209 264 0
-208 -209 -264 0
210 211 -265 0
-210 211 265 0
210 -211 265 0
-210 -211 -265 0
212 213 -266 0
-212 213 266 0
212 -213 266 0
-212 -213 -266 0
214 215 -267 0
-214 215 267 0
214 -215 267 0
-214 -215 -267 0
216 217 -268 0
-216 217 268 0
216 -217 268 0
-216 -217 -268 0
218 219 -269 0
-218 219 269 0
218 -219 269 0
-218 -219 -269 0
220 221 -270 0
-220 221 270 0
220 -221 270 0
-220 -221 -270 0
222 223 -271 0
-222 223 271 0
222 -223 271 0
-222 -223 -271 0
224 225 -272 0
-224 225 272 0
224 -225 272 0
-224 -225 -272 0
226 227 -273 0
-226 227 273 0
226 -227 273 0
-226 -227 -273 0
228 229 -274 0
-228 229 274 0
228 -229 274 0
-228 -229 -274 0
230 231 -275 0
-230 231 275 0
230 -231 275 0
-230 -231 -275 0
232 233 -276 0
-232 233 276 0
232 -233 276 0
-232 -233 -276 0
234 235 -277 0
-234 235 277 0
234 -235 277 0
-234 -235 -277 0
236 237 -278 0
-236 237 278 0
236 -237 278 0
-236 -237 -278 0
238 239 -279 0
-238 239 279 0
238 -239 279 0
-238 -239 -279 0
241 242 -280 0
-241 242 280 0
241 -242 280 0
-241 -242 -280 0
243 244 -281 0
-243 244 281 0
243 -244 281 0
-243 -244 -281 0
245 246 -282 0
-245 246 282 0
245 -246 282 0
-245 -246 -282 0
247 248 -283 0
-247 248 283 0
247 -248 283 0
-247 -248 -283 0
249 250 -284 0
-249 250 284 0
249 -250 284 0
-249 -250 -284 0
251 252 -285 0
-251 252 285 0
251 -252 285 0
-251 -252 -285 0
253 254 -286 0
-253 254 286 0
253 -254 286 0
-253 -254 -286 0
255 256 -287 0
-255 256 287 0
255 -256 287 0
-255 -256 -287 0
257 258 -288 0
-257 258 288 0
257 -258 288 0
-257 -258 -288 0
259 260 -289 0
-259 260 289 0
259 -260 289 0
-259 -260 -289 0
261 262 -290 0
-261 262 290 0
261 -262 290 0
-261 -262 -290 0
263 264 -291 0
-263 264 291 0
263 -264 291 0
-263 -264 -291 0
265 266 -292 0
-265 266 292 0
265 -266 292 0
-265 -266 -292 0
267 268 -293 0
-267 268 293 0
267 -268 293 0
-267 -268 -293 0
269 270 -294 0
-269 270 294 0
269 -270 294 0
-269 -270 -294 0
271 272 -295 0
-271 272 295 0
271 -272 295 0
-271 -272 -295 0
273 274 -296 0
-273 274 296 0
273 -274 296 0
-273 -274 -296 0
275 276 -297 0
-275 276 297 0
275 -276 297 0
-275 -276 -297 0
277 278 -298 0
-277 278 298 0
277 -278 298 0
-277 -278 -298 0
279 240 -299 0
-279 240 299 0
279 -240 299 0
-279 -240 -299 0
280 281 -300 0
-280 281 300 0
280 -281 300 0
-280 -281 -300 0
282 283 -301 0
-282 283 301 0
282 -283 301 0
-282 -283 -301 0
284 285 -302 0
-284 285 302 0
284 -285 302 0
-284 -285 -302 0
286 287 -303 0
-286 287 303 0
286 -287 303 0
-286 -287 -303 0
288 289 -304 0
-288 289 304 0
288 -289 304 0
-288 -289 -304 0
290 291 -305 0
-290 291 305 0
290 -291 305 0
-290 -291 -305 0
292 293 -306 0
-292 293 306 0
292 -293 306 0
-292 -293 -306 0
294 295 -307 0
-294 295 307 0
294 -295 307 0
-294 -295 -307 0
296 297 -308 0
-296 297 308 0
296 -297 308 0
-296 -297 -308 0
298 299 -309 0
-298 299 309 0
298 -299 309 0
-298 -299 -309 0
300 301 -310 0
-300 301 310 0
300 -301 310 0
-300 -301 -310 0
302 303 -311 0
-302 303 311 0
302 -303 311 0
-302 -303 -311 0
304 305 -312 0
-304 305 312 0
304 -305 312 0
-304 -305 -312 0
306 307 -313 0
-306 307 313 0
306 -307 313 0
-306 -307 -313 0
308 309 -314 0
-308 309 314 0
308 -309 314 0
-308 -309 -314 0
310 311 -315 0
-310 311 315 0
310 -311 315 0
-310 -311 -315 0
312 313 -316 0
-312 313 316 0
312 -313 316 0
-312 -313 -316 0
315 316 -317 0
-315 316 317 0
315 -316 317 0
-315 -316 -317 0
317 314 -159 0
-317 314 159 0
317 -314 159 0
-317 -314 -159 0
